c A 3SAT instance whose satisfying assignment encodes the subset of [0, 1] that add up to 2
p cnf 12 29
-3 0
4 0
-5 0
-6 1 3 0
-6 -1 3 0
-6 1 -3 0
6 -1 -3 0
-7 2 4 0
-7 -2 4 0
-7 2 -4 0
7 -2 -4 0
-8 2 5 0
-8 -2 5 0
-8 2 -5 0
8 -2 -5 0
-9 6 0
9 -6 0
-10 9 7 0
10 -9 7 0
10 9 -7 0
-10 -9 -7 0
-12 9 7 0
-12 -9 7 0
-12 9 -7 0
12 -9 -7 0
-11 12 0
11 -12 0
-10 0
11 0
